Instance: Data/Instances_txt/inst_60_10_2.txt
SetUpTime: 2.492666006088257

Gurobi 10.0.1 (mac64[x86]) logging started Di  1 Aug 16:29:23 2023

Set parameter LogFile to value "Output/MILP_RELAXED_inst_60_10_2_2023-08-01_16-28-50.txt"
Set parameter TimeLimit to value 2700

Gurobi 10.0.1 (mac64[x86]) logging started Di  1 Aug 16:29:23 2023

Set parameter LogFile to value "Output/MILP_RELAXED_inst_60_10_2_2023-08-01_16-28-50.txt"
Gurobi Optimizer version 10.0.1 build v10.0.1rc0 (mac64[x86])

CPU model: Intel(R) Core(TM) i5-1038NG7 CPU @ 2.00GHz
Thread count: 4 physical cores, 8 logical processors, using up to 8 threads

Optimize a model with 121 rows, 5927 columns and 23934 nonzeros
Model fingerprint: 0x3b8c09a5
Coefficient statistics:
  Matrix range     [1e+00, 1e+00]
  Objective range  [8e+00, 6e+03]
  Bounds range     [1e+00, 1e+00]
  RHS range        [1e+00, 1e+00]
Presolve removed 2 rows and 0 columns
Presolve time: 0.01s
Presolved: 119 rows, 5927 columns, 23518 nonzeros

Iteration    Objective       Primal Inf.    Dual Inf.      Time
       0    2.6700000e+03   8.400000e+01   0.000000e+00      0s
    1245    4.4880619e+04   0.000000e+00   0.000000e+00      0s

Solved in 1245 iterations and 0.08 seconds (0.10 work units)
Optimal objective  4.488061905e+04

User-callback calls 1304, time in user-callback 0.00 sec

=========================

OUTPUT STATISTICS
Relaxed: true
Time since start: 2.664715051651001
SetUpTime: 2.492666006088257
Objective value: 44880.61904761905
Number of variables: 5927
Solving time: 0.1712348461151123
